p edge 126 415
e 1 3
e 1 5
e 1 9
e 1 18
e 1 21
e 1 23
e 1 25
e 1 31
e 1 39
e 1 47
e 1 56
e 1 64
e 1 69
e 1 87
e 1 101
e 1 107
e 2 4
e 2 7
e 2 10
e 2 13
e 2 27
e 2 34
e 2 36
e 2 46
e 2 49
e 2 58
e 2 68
e 3 9
e 3 10
e 3 12
e 3 18
e 3 23
e 3 25
e 3 27
e 3 31
e 3 32
e 3 38
e 3 47
e 3 51
e 3 69
e 3 101
e 3 114
e 4 7
e 4 10
e 4 12
e 4 13
e 4 34
e 4 39
e 4 46
e 4 49
e 4 55
e 4 58
e 4 97
e 4 109
e 5 17
e 5 25
e 5 31
e 5 33
e 5 45
e 5 56
e 5 72
e 5 73
e 5 74
e 5 87
e 5 96
e 5 126
e 6 61
e 6 66
e 7 13
e 7 20
e 7 34
e 7 39
e 7 46
e 7 52
e 7 55
e 7 58
e 7 67
e 7 68
e 7 93
e 8 10
e 8 35
e 8 53
e 8 61
e 8 71
e 8 85
e 8 95
e 8 117
e 9 16
e 9 18
e 9 28
e 9 32
e 9 38
e 9 47
e 9 49
e 9 53
e 9 60
e 9 62
e 9 69
e 9 84
e 9 85
e 9 101
e 10 15
e 10 20
e 10 34
e 10 46
e 10 49
e 10 58
e 10 85
e 10 114
e 11 14
e 11 15
e 11 16
e 11 24
e 11 26
e 11 30
e 11 34
e 11 42
e 11 75
e 11 89
e 11 98
e 11 99
e 12 19
e 12 23
e 12 25
e 12 32
e 12 43
e 12 56
e 12 60
e 12 91
e 12 97
e 12 109
e 13 20
e 13 28
e 13 39
e 13 52
e 13 55
e 13 57
e 13 58
e 13 70
e 13 71
e 14 15
e 14 16
e 14 17
e 14 24
e 14 26
e 14 30
e 14 34
e 14 42
e 14 75
e 14 77
e 14 86
e 14 99
e 15 34
e 15 46
e 15 48
e 15 75
e 15 96
e 15 118
e 16 17
e 16 24
e 16 26
e 16 30
e 16 53
e 16 60
e 16 84
e 16 86
e 16 89
e 16 99
e 17 24
e 17 33
e 17 45
e 17 73
e 17 74
e 17 86
e 18 19
e 18 35
e 18 47
e 18 50
e 18 64
e 18 69
e 18 90
e 18 101
e 18 109
e 19 28
e 19 30
e 19 32
e 19 35
e 19 43
e 19 60
e 19 64
e 19 90
e 19 109
e 19 119
e 20 37
e 20 39
e 20 52
e 20 57
e 20 63
e 20 70
e 20 93
e 20 102
e 21 22
e 21 23
e 21 25
e 21 31
e 21 39
e 21 47
e 21 52
e 21 54
e 21 57
e 21 62
e 21 87
e 22 27
e 22 47
e 22 48
e 22 51
e 22 57
e 22 87
e 22 90
e 22 95
e 22 122
e 22 123
e 23 31
e 23 37
e 23 39
e 23 93
e 23 102
e 24 26
e 24 30
e 24 86
e 24 99
e 24 106
e 24 108
e 24 116
e 25 31
e 25 32
e 25 54
e 25 56
e 25 87
e 26 30
e 26 36
e 26 41
e 26 78
e 26 79
e 26 99
e 27 38
e 27 48
e 27 51
e 27 68
e 27 95
e 28 30
e 28 32
e 28 43
e 28 49
e 28 53
e 28 60
e 28 119
e 29 37
e 29 41
e 29 44
e 29 59
e 29 63
e 29 70
e 29 82
e 29 88
e 29 103
e 30 43
e 30 60
e 30 84
e 30 89
e 30 99
e 30 119
e 31 36
e 31 39
e 31 52
e 31 56
e 31 87
e 32 43
e 32 49
e 32 53
e 32 56
e 32 60
e 33 45
e 33 51
e 33 63
e 33 73
e 33 74
e 33 92
e 33 124
e 34 46
e 34 49
e 34 58
e 35 62
e 35 64
e 35 90
e 35 91
e 35 110
e 35 111
e 36 49
e 36 52
e 37 41
e 37 57
e 37 59
e 37 63
e 37 70
e 37 102
e 37 103
e 38 51
e 38 54
e 38 62
e 38 72
e 38 75
e 38 85
e 39 55
e 39 93
e 40 43
e 40 83
e 40 86
e 41 59
e 41 70
e 41 78
e 41 79
e 41 103
e 42 77
e 42 99
e 43 60
e 43 83
e 43 84
e 43 119
e 44 63
e 44 80
e 44 82
e 44 115
e 45 51
e 45 65
e 45 73
e 45 74
e 46 49
e 46 58
e 47 52
e 47 57
e 47 62
e 47 69
e 47 87
e 47 101
e 48 51
e 48 81
e 48 95
e 48 96
e 49 53
e 50 105
e 51 95
e 52 62
e 53 95
e 54 71
e 54 75
e 55 88
e 55 92
e 55 121
e 56 87
e 56 91
e 56 97
e 57 59
e 57 70
e 57 87
e 57 103
e 59 70
e 59 103
e 60 84
e 60 89
e 60 119
e 62 85
e 62 91
e 62 110
e 63 82
e 63 92
e 63 102
e 63 124
e 64 90
e 64 107
e 64 117
e 65 73
e 66 76
e 66 125
e 67 68
e 69 101
e 70 103
e 72 75
e 72 96
e 72 112
e 72 120
e 73 74
e 74 126
e 76 110
e 77 99
e 78 79
e 80 94
e 80 100
e 90 122
e 90 123
e 91 97
e 91 110
e 92 121
e 92 124
e 94 100
e 98 104
e 104 114
e 105 113
e 106 108
e 106 116
e 108 116
e 111 112
e 111 120
e 112 120
e 122 123
